4 5 1.7
3 1 1 147 2 4 140 2 130 2 4 150 5 160 
3 2 1 214 3 150 2 3 87 2 66 1 5 178 
3 2 1 87 2 62 1 3 180 2 4 190 5 100 
3 2 1 87 2 65 1 5 173 2 4 145 3 136 
2 43 52 119 59 206 307 
2 48 13 68 14 99 144 
2 58 37 147 66 242 310 
2 75 26 131 42 204 267 
2 51 61 180 55 300 423 
